(set-info :smt-lib-version 2.6)
(set-logic QF_FP)
(set-info :source |Random FP created by PyMPF|)
(set-info :license |https://www.gnu.org/licenses/gpl-3.0.html|)
(set-info :category random)
(set-info :status unsat)
(declare-const x Float32)
(assert (= x ((_ to_fp 8 24) #x3C684519)))
;; x should be Float32(0x3C684519 [Rational(15222041, 1073741824), 0.014177])

(declare-const y Float32)
(assert (= y ((_ to_fp 8 24) #x7F7FFFFF)))
;; y should be Float32(0x7F7FFFFF [Rational(340282346638528859811704183484516925440), 340282346638528859811704183484516925440.000000])

(declare-const z Float32)
(assert (= z ((_ to_fp 8 24) #x4A945F63)))
;; z should be Float32(0x4A945F63 [Rational(9723747, 2), 4861873.500000])

(declare-const result Float32)
(assert (= result (fp.fma RTN x y z)))
(assert (not (= result (fp #b0 #b11111000 #b11010000100010100011000))))
(check-sat)
(exit)
